(set-info :smt-lib-version 2.6)
(set-logic QF_S)
(set-info :source |
Generated by: Hung-En Wang, Tzung-Lin Tsai, Chun-Han Lin, Fang Yu, and Jie-Hong R. Jiang
Generated on: 2019-02-28
Generator: Stranger
Application: Security analysis of string manipulating web applications
Target solver: CVC4, Norn, Z3-str2
Publication:
Hung-En Wang, Tzung-Lin Tsai, Chun-Han Lin, Fang Yu, Jie-Hong R. Jiang:
String Analysis via Automata Manipulation with Logic Circuit Representation. CAV (1) 2016: 241-260.
|)
(set-info :license "https://creativecommons.org/licenses/by/4.0/")
(set-info :category "industrial")
(set-info :status unknown)

(declare-fun sigmaStar_0 () String)
(declare-fun sigmaStar_1 () String)
(declare-fun sigmaStar_2 () String)
(declare-fun sigmaStar_3 () String)
(declare-fun sigmaStar_4 () String)
(declare-fun sigmaStar_5 () String)
(declare-fun literal_6 () String)
(declare-fun x_7 () String)
(declare-fun sigmaStar_8 () String)
(declare-fun literal_9 () String)
(declare-fun x_10 () String)
(declare-fun x_11 () String)
(declare-fun x_13 () String)
(declare-fun literal_12 () String)
(declare-fun x_15 () String)
(declare-fun literal_14 () String)
(declare-fun x_16 () String)
(declare-fun literal_17 () String)
(declare-fun x_18 () String)
(declare-fun x_19 () String)
(declare-fun x_20 () String)
(declare-fun x_21 () String)
(declare-fun literal_22 () String)
(declare-fun x_23 () String)
(declare-fun x_24 () String)
(declare-fun literal_25 () String)
(declare-fun x_26 () String)
(assert (= literal_6 "\u{3c}\u{61}\u{20}\u{68}\u{72}\u{65}\u{66}\u{3d}\u{27}\u{76}\u{69}\u{65}\u{77}\u{74}\u{68}\u{72}\u{65}\u{61}\u{64}\u{2e}\u{70}\u{68}\u{70}\u{3f}\u{66}\u{6f}\u{72}\u{75}\u{6d}\u{5f}\u{69}\u{64}\u{3d}"))
(assert (= x_7 (str.++ literal_6 sigmaStar_4)))
(assert (= literal_9 "\u{26}\u{61}\u{6d}\u{70}\u{3b}\u{74}\u{68}\u{72}\u{65}\u{61}\u{64}\u{5f}\u{69}\u{64}\u{3d}"))
(assert (= x_10 (str.++ x_7 literal_9)))
(assert (or (= x_11 sigmaStar_8) (= x_11 sigmaStar_0)))
(assert (= x_13 (str.++ x_10 x_11)))
(assert (= literal_12 "\u{3c}\u{2f}\u{61}\u{3e}\u{20}\u{7c}\u{0d}\u{0a}\u{3c}\u{61}\u{20}\u{68}\u{72}\u{65}\u{66}\u{3d}\u{27}\u{76}\u{69}\u{65}\u{77}\u{66}\u{6f}\u{72}\u{75}\u{6d}\u{2e}\u{70}\u{68}\u{70}\u{3f}\u{66}\u{6f}\u{72}\u{75}\u{6d}\u{5f}\u{69}\u{64}\u{3d}"))
(assert (= x_15 (str.++ literal_12 sigmaStar_3)))
(assert (= literal_14 "\u{27}\u{3e}"))
(assert (= x_16 (str.++ x_13 literal_14)))
(assert (= literal_17 "\u{27}\u{3e}"))
(assert (= x_18 (str.++ x_15 literal_17)))
(assert (= x_19 (str.++ x_16 sigmaStar_2)))
(assert (= x_20 (str.++ x_19 x_18)))
(assert (= x_21 (str.++ x_20 sigmaStar_1)))
(assert (= literal_22 "\u{3c}\u{2f}\u{61}\u{3e}\u{20}\u{7c}\u{0d}\u{0a}\u{3c}\u{61}\u{20}\u{68}\u{72}\u{65}\u{66}\u{3d}\u{27}\u{69}\u{6e}\u{64}\u{65}\u{78}\u{2e}\u{70}\u{68}\u{70}\u{27}\u{3e}"))
(assert (= x_23 (str.++ x_21 literal_22)))
(assert (= x_24 (str.++ x_23 sigmaStar_5)))
(assert (= literal_25 "\u{3c}\u{2f}\u{61}\u{3e}\u{3c}\u{62}\u{72}\u{3e}\u{3c}\u{62}\u{72}\u{3e}\u{0d}\u{0a}\u{3c}\u{2f}\u{63}\u{65}\u{6e}\u{74}\u{65}\u{72}\u{3e}\u{5c}\u{6e}"))
(assert (= x_26 (str.++ x_24 literal_25)))
(assert (str.in_re x_26 (re.++ (re.* re.allchar) (re.++ (str.to_re "\u{5c}\u{3c}\u{53}\u{43}\u{52}\u{49}\u{50}\u{54}") (re.* re.allchar)))))
(check-sat)
(exit)
